

******************************************************************************
This program contains Ipopt, a library for large-scale nonlinear optimization.
 Ipopt is released as open source code under the Eclipse Public License (EPL).
         For more information visit https://github.com/coin-or/Ipopt
******************************************************************************

This is Ipopt version 3.14.11, running with linear solver MUMPS 5.5.1.

Number of nonzeros in equality constraint Jacobian...:        0
Number of nonzeros in inequality constraint Jacobian.:        5
Number of nonzeros in Lagrangian Hessian.............:        2

Total number of variables............................:        3
                     variables with only lower bounds:        0
                variables with lower and upper bounds:        0
                     variables with only upper bounds:        0
Total number of equality constraints.................:        0
Total number of inequality constraints...............:        2
        inequality constraints with only lower bounds:        0
   inequality constraints with lower and upper bounds:        0
        inequality constraints with only upper bounds:        2

iter    objective    inf_pr   inf_du lg(mu)  ||d||  lg(rg) alpha_du alpha_pr  ls
   0  0.0000000e+00 0.00e+00 5.55e-01  -1.0 0.00e+00    -  0.00e+00 0.00e+00   0
   1 -7.8075501e-01 0.00e+00 3.95e-02  -1.7 7.81e-01    -  1.00e+00 1.00e+00f  1
   2 -9.7158386e-01 1.78e-02 9.84e-03  -1.7 4.86e-01    -  1.00e+00 9.75e-01h  1
   3 -9.9376646e-01 0.00e+00 2.00e-03  -2.5 6.42e-02    -  1.00e+00 1.00e+00h  1
   4 -9.9969593e-01 0.00e+00 9.54e-06  -3.8 8.18e-03    -  1.00e+00 1.00e+00h  1
   5 -9.9999632e-01 0.00e+00 1.28e-09  -5.7 3.32e-04    -  1.00e+00 1.00e+00h  1
   6 -1.0000000e+00 0.00e+00 2.51e-14  -8.6 3.70e-06    -  1.00e+00 1.00e+00h  1

Number of Iterations....: 6

                                   (scaled)                 (unscaled)
Objective...............:  -1.0000000049881925e+00   -1.0000000049881925e+00
Dual infeasibility......:   2.5091040356528538e-14    2.5091040356528538e-14
Constraint violation....:   0.0000000000000000e+00    0.0000000000000000e+00
Variable bound violation:   0.0000000000000000e+00    0.0000000000000000e+00
Complementarity.........:   2.5059298332581574e-09    2.5059298332581574e-09
Overall NLP error.......:   2.5059298332581574e-09    2.5059298332581574e-09


Number of objective function evaluations             = 7
Number of objective gradient evaluations             = 7
Number of equality constraint evaluations            = 0
Number of inequality constraint evaluations          = 7
Number of equality constraint Jacobian evaluations   = 0
Number of inequality constraint Jacobian evaluations = 7
Number of Lagrangian Hessian evaluations             = 6
Total seconds in IPOPT                               = 0.007

EXIT: Optimal Solution Found.
 
Ipopt 3.14.11: Optimal Solution Found
